
Gurobi 7.5.2 (linux64) logging started Sat Jun 23 18:07:19 2018

Changed value of parameter LogFile to result/ilp/simNo_9-n_100-m_40-s_7-minVAF_0.05-cov_2000-k_1-fn_0.10-fp_0.0001-na_0.15.ILP.gurobiSolverLog
   Prev: gurobi.log  Default: 
Changed value of parameter TimeLimit to 86400.0
   Prev: 1e+100  Min: 0.0  Max: 1e+100  Default: 1e+100
Optimize a model with 1265601 rows, 330440 columns and 3489120 nonzeros
Variable types: 0 continuous, 330440 integer (330440 binary)
Coefficient statistics:
  Matrix range     [7e-04, 2e+00]
  Objective range  [2e+00, 1e+01]
  Bounds range     [1e+00, 1e+00]
  RHS range        [1e-01, 2e+00]
Found heuristic solution: objective -7156.356765
Presolve removed 386982 rows and 224962 columns (presolve time = 6s) ...
Presolve removed 387400 rows and 224962 columns (presolve time = 10s) ...
Presolve removed 388176 rows and 224962 columns (presolve time = 15s) ...
Presolve removed 388176 rows and 224962 columns (presolve time = 20s) ...
Presolve removed 388176 rows and 224962 columns (presolve time = 26s) ...
Presolve removed 388176 rows and 224962 columns (presolve time = 30s) ...
Presolve removed 388176 rows and 224962 columns (presolve time = 35s) ...
Presolve removed 388176 rows and 224962 columns (presolve time = 42s) ...
Presolve removed 388176 rows and 224962 columns
Presolve time: 41.69s
Presolved: 877425 rows, 105478 columns, 2441859 nonzeros
Variable types: 0 continuous, 105478 integer (105478 binary)
Presolved: 105478 rows, 982903 columns, 2547337 nonzeros

Presolve removed 105478 rows and 982903 columns

Root simplex log...

Iteration    Objective       Primal Inf.    Dual Inf.      Time
       0    1.0192875e+01   0.000000e+00   5.397000e+04     52s
    7463   -1.0263040e+02   0.000000e+00   0.000000e+00     54s
    7463   -1.0263040e+02   0.000000e+00   0.000000e+00     57s

Root relaxation: objective -1.026304e+02, 7463 iterations, 11.47 seconds
Total elapsed time = 71.89s
Total elapsed time = 79.17s
Total elapsed time = 87.02s

    Nodes    |    Current Node    |     Objective Bounds      |     Work
 Expl Unexpl |  Obj  Depth IntInf | Incumbent    BestBd   Gap | It/Node Time

     0     0 -102.63040    0  179 -7156.3568 -102.63040  98.6%     -   95s
H    0     0                    -111.7825920 -102.63040  8.19%     -  100s
     0     0 -105.20537    0  160 -111.78259 -105.20537  5.88%     -  116s
     0     0 -107.26582    0  125 -111.78259 -107.26582  4.04%     -  168s
     0     0 -107.26582    0   95 -111.78259 -107.26582  4.04%     -  321s
     0     0 -107.26582    0   90 -111.78259 -107.26582  4.04%     -  321s
     0     0 -107.95304    0   88 -111.78259 -107.95304  3.43%     -  322s
     0     0 -108.03880    0   89 -111.78259 -108.03880  3.35%     -  323s
     0     0 -108.03880    0   89 -111.78259 -108.03880  3.35%     -  323s
     0     0 -108.29605    0   63 -111.78259 -108.29605  3.12%     -  324s
     0     0 -108.38702    0   89 -111.78259 -108.38702  3.04%     -  324s
     0     0 -108.50831    0   64 -111.78259 -108.50831  2.93%     -  325s
     0     0 -108.81177    0   55 -111.78259 -108.81177  2.66%     -  325s
     0     0 -108.81177    0   55 -111.78259 -108.81177  2.66%     -  326s
     0     0 -108.85132    0   87 -111.78259 -108.85132  2.62%     -  326s
     0     0 -109.10332    0   99 -111.78259 -109.10332  2.40%     -  327s
     0     0 -109.11522    0   75 -111.78259 -109.11522  2.39%     -  327s
     0     0 -109.11522    0   76 -111.78259 -109.11522  2.39%     -  327s
     0     0 -109.21471    0  101 -111.78259 -109.21471  2.30%     -  327s
     0     0 -109.29553    0   97 -111.78259 -109.29553  2.22%     -  328s
     0     0 -109.32628    0   57 -111.78259 -109.32628  2.20%     -  328s
     0     0 -109.32628    0   55 -111.78259 -109.32628  2.20%     -  329s
     0     0 -109.32628    0   53 -111.78259 -109.32628  2.20%     -  329s
     0     0 -109.32628    0   57 -111.78259 -109.32628  2.20%     -  329s
     0     0 -109.34414    0  122 -111.78259 -109.34414  2.18%     -  330s
     0     0 -109.34414    0  122 -111.78259 -109.34414  2.18%     -  330s
     0     0 -109.72213    0   24 -111.78259 -109.72213  1.84%     -  331s
     0     0 -109.73011    0   99 -111.78259 -109.73011  1.84%     -  332s
     0     0 -109.73068    0   99 -111.78259 -109.73068  1.84%     -  332s
     0     0 -109.73410    0   98 -111.78259 -109.73410  1.83%     -  333s
     0     0 -109.73410    0   31 -111.78259 -109.73410  1.83%     -  334s
     0     0 -109.73410    0   39 -111.78259 -109.73410  1.83%     -  334s
     0     0 -109.73410    0   23 -111.78259 -109.73410  1.83%     -  334s
     0     0 -109.73410    0   40 -111.78259 -109.73410  1.83%     -  335s
     0     0 -109.73410    0   40 -111.78259 -109.73410  1.83%     -  335s
     0     0 -109.84200    0   33 -111.78259 -109.84200  1.74%     -  335s
     0     0 -109.94511    0   48 -111.78259 -109.94511  1.64%     -  335s
     0     0 -109.94631    0   48 -111.78259 -109.94631  1.64%     -  335s
     0     0 -109.95717    0   39 -111.78259 -109.95717  1.63%     -  335s
     0     0 -109.95798    0   42 -111.78259 -109.95798  1.63%     -  335s
     0     0 -109.95927    0   49 -111.78259 -109.95927  1.63%     -  335s
     0     0 -109.95927    0   49 -111.78259 -109.95927  1.63%     -  335s
     0     0 -109.95927    0   48 -111.78259 -109.95927  1.63%     -  335s
     0     0 -109.95927    0   49 -111.78259 -109.95927  1.63%     -  335s
     0     0 -109.95927    0   49 -111.78259 -109.95927  1.63%     -  335s
     0     0 -109.95927    0   48 -111.78259 -109.95927  1.63%     -  335s
     0     0 -109.95927    0   50 -111.78259 -109.95927  1.63%     -  336s
     0     0 -109.95927    0   50 -111.78259 -109.95927  1.63%     -  336s
     0     0 -109.95927    0   49 -111.78259 -109.95927  1.63%     -  336s
     0     0 -109.95927    0   49 -111.78259 -109.95927  1.63%     -  336s
     0     0 -109.95927    0   51 -111.78259 -109.95927  1.63%     -  336s
     0     0 -111.43072    0   18 -111.78259 -111.43072  0.31%     -  336s

Cutting planes:
  Gomory: 3
  Zero half: 10

Explored 1 nodes (18788 simplex iterations) in 337.01 seconds
Thread count was 1 (of 80 available processors)

Solution count 4: -111.783 -111.783 -111.783 -7156.36 

Optimal solution found (tolerance 1.00e-04)
Best objective -1.117825919762e+02, best bound -1.117825919762e+02, gap 0.0000%
